
#######################################################################
#
#                 Cambridge Crystallographic Data Centre
#                                CCDC
#
#######################################################################
#
# If this CIF has been generated from an entry in the Cambridge
# Structural Database, then it will include bibliographic, chemical,
# crystal, experimental, refinement or atomic coordinate data resulting
# from the CCDC's data processing and validation procedures.
#
#######################################################################

data_CSD_CIF_HUTVAV
_audit_creation_date 2015-11-12
_audit_creation_method CSD-ConQuest-V1
_database_code_CSD HUTVAV
_database_code_depnum_ccdc_archive 'CCDC 1400324'
_chemical_formula_sum 'C2 H8 I3 N1 Pb1'
_chemical_formula_moiety
;
(C2 H8 N1 1+)n,n(I3 Pb1 1-)
;
_journal_coden_Cambridge 1147
_journal_volume 15
_journal_year 2015
_journal_page_first 4363
_journal_name_full 'Cryst.Growth Des. '
loop_
_publ_author_name
"S.Eppel"
"N.Fridman"
"G.Frey"
_chemical_name_systematic
;
catena-[dimethylammonium tris(\m-iodo)-lead(ii)]
;
_cell_volume   1086.721
_exptl_crystal_colour 'yellowish orange'
_exptl_crystal_density_diffrn 3.826
_exptl_special_details
;
Cmc21 polymorph

;
_exptl_crystal_description 'hexagonal'
_diffrn_ambient_temperature 293
_refine_special_details
;
N5 disordered by symmetry over two configurations with occupancy 0.500000.

;
#These two values have been output from a single CSD field.
_refine_ls_R_factor_gt 0.0616
_refine_ls_wR_factor_gt 0.0616
_symmetry_cell_setting orthorhombic
_symmetry_space_group_name_H-M 'C m c 21'
_symmetry_Int_Tables_number 36
loop_
_symmetry_equiv_pos_site_id
_symmetry_equiv_pos_as_xyz
1 x,y,z
2 -x,-y,1/2+z
3 -x,y,z
4 x,-y,1/2+z
5 1/2+x,1/2+y,z
6 1/2-x,1/2-y,1/2+z
7 1/2-x,1/2+y,z
8 1/2+x,1/2-y,1/2+z
_cell_length_a 8.7560(8)
_cell_length_b 15.1670(14)
_cell_length_c 8.1830(4)
_cell_angle_alpha 90
_cell_angle_beta 90
_cell_angle_gamma 90
_cell_formula_units_Z 4
loop_
_atom_type_symbol
_atom_type_radius_bond
C 0.68
I 1.40
N 0.68
Pb 1.46
loop_
_atom_site_label
_atom_site_type_symbol
_atom_site_fract_x
_atom_site_fract_y
_atom_site_fract_z
I1 I 0.00000 0.33563(14) 0.66709(7)
I2 I -0.24649(19) 0.41773(13) 0.16755(7)
Pb1 Pb 0.00000 0.50153(10) 0.40968(3)
C1 C 0.00000 0.137(6) 0.307(5)
C2 C 0.00000 0.191(4) 0.004(4)
N1 N -0.075(8) 0.185(6) 0.169(3)
I2B I 0.24649(19) 0.41773(13) 0.16755(7)
I1A I 0.00000 0.66437(14) 0.16709(7)
I2A I 0.24649(19) 0.58227(13) 0.66755(7)
I2C I -0.24649(19) 0.58227(13) 0.66755(7)
Pb1A Pb 0.00000 0.49847(10) -0.09032(3)
Pb1A* Pb 0.00000 0.49847(10) 0.90968(3)
N1B N 0.075(8) 0.185(6) 0.169(3)
#END
